NAME example05.mps
OBJSENSE
 MAX
ROWS
 N  obj     
 L  c1
 L  c2
COLUMNS
    x1        obj                   1
    x1        c1                    3   c2                   -1
    x2        obj                   3
    x2        c1                    6   c2                    5
RHS
    rhs       c1                    21  c2                    5
ENDATA
